Medium-instances_NetworkFacilityLocation/2023-03-27_20hr-25min-09sec/Nodes30_Arcs45_LocNodes22/Formulation-1Instance-1.lp
\ Model LocPrice
\ LP format - for model browsing. Use MPS format to capture full model detail.
Maximize
  - 171 x[1] - 197 x[2] - 181 x[3] - 167 x[6] - 199 x[7] - 180 x[8]
   - 197 x[9] - 150 x[10] - 173 x[13] - 191 x[15] - 187 x[17] - 170 x[18]
   - 174 x[19] - 171 x[20] - 176 x[21] - 161 x[22] - 189 x[23] - 153 x[24]
   - 170 x[25] - 164 x[28] - 186 x[29] - 187 x[30] - 4.864119373226757 Q[1]
   - 3.22986526656181 Q[2] - 4.458030234152619 Q[3] - 4.85484785724912 Q[6]
   - 4.935852379849293 Q[7] - 3.029412609930739 Q[8]
   - 4.727280180491151 Q[9] - 4.962390080132689 Q[10]
   - 4.914420359221927 Q[13] - 3.297528024464996 Q[15]
   - 4.94525762764591 Q[17] - 4.779871111441041 Q[18]
   - 4.644747655086141 Q[19] - 3.959975847615664 Q[20]
   - 3.464745839278608 Q[21] - 4.603761157436615 Q[22]
   - 4.847060319566939 Q[23] - 3.532260544584585 Q[24]
   - 4.077868815244374 Q[25] - 3.885505657949063 Q[28]
   - 4.86203463196231 Q[29] - 3.081021422376869 Q[30] + [ 2 pi[1] * Q[1]
   + 2 pi[2] * Q[2] + 2 pi[3] * Q[3] + 2 pi[6] * Q[6] + 2 pi[7] * Q[7]
   + 2 pi[8] * Q[8] + 2 pi[9] * Q[9] + 2 pi[10] * Q[10] + 2 pi[13] * Q[13]
   + 2 pi[15] * Q[15] + 2 pi[17] * Q[17] + 2 pi[18] * Q[18]
   + 2 pi[19] * Q[19] + 2 pi[20] * Q[20] + 2 pi[21] * Q[21]
   + 2 pi[22] * Q[22] + 2 pi[23] * Q[23] + 2 pi[24] * Q[24]
   + 2 pi[25] * Q[25] + 2 pi[28] * Q[28] + 2 pi[29] * Q[29]
   + 2 pi[30] * Q[30] ] / 2 
Subject To
 R0: Q[1] + Q[2] + Q[3] + Q[6] + Q[7] + Q[8] + Q[9] + Q[10] + Q[13] + Q[15]
   + Q[17] + Q[18] + Q[19] + Q[20] + Q[21] + Q[22] + Q[23] + Q[24] + Q[25]
   + Q[28] + Q[29] + Q[30] <= 1925
 R1: - 129 x[1] + Q[1] <= 0
 R2: - 190 x[2] + Q[2] <= 0
 R3: - 167 x[3] + Q[3] <= 0
 R4: - 189 x[6] + Q[6] <= 0
 R5: - 119 x[7] + Q[7] <= 0
 R6: - 175 x[8] + Q[8] <= 0
 R7: - 194 x[9] + Q[9] <= 0
 R8: - 104 x[10] + Q[10] <= 0
 R9: - 136 x[13] + Q[13] <= 0
 R10: - 163 x[15] + Q[15] <= 0
 R11: - 110 x[17] + Q[17] <= 0
 R12: - 151 x[18] + Q[18] <= 0
 R13: - 162 x[19] + Q[19] <= 0
 R14: - 176 x[20] + Q[20] <= 0
 R15: - 192 x[21] + Q[21] <= 0
 R16: - 140 x[22] + Q[22] <= 0
 R17: - 144 x[23] + Q[23] <= 0
 R18: - 147 x[24] + Q[24] <= 0
 R19: - 195 x[25] + Q[25] <= 0
 R20: - 119 x[28] + Q[28] <= 0
 R21: - 149 x[29] + Q[29] <= 0
 R22: - 104 x[30] + Q[30] <= 0
 node[1]: - Q[1] - f[2,1] - f[8,1] - f[9,1] - f[10,1] - f[26,1] - f[30,1]
   - f[6,1] + f[1,25] = 0
 node[3]: - Q[3] + f[3,2] - f[5,3] + f[3,23] = 0
 node[20]: - Q[20] + f[20,11] - f[22,20] - f[24,20] = 0
 node[22]: - Q[22] + f[22,20] = 0
 node[28]: - Q[28] + f[28,24] + f[28,26] - f[15,28] = 0
 node[25]: - Q[25] + f[25,17] - f[13,25] - f[1,25] - S[25] = 0
 node[19]: - Q[19] + f[19,12] - f[24,19] - S[19] = 0
 node[6]: - Q[6] + f[6,2] + f[6,15] + f[6,1] - S[6] = 0
 node[23]: - Q[23] + f[23,7] - f[3,23] - S[23] = 0
 node[8]: - Q[8] + f[8,1] - f[13,8] - f[15,8] + D[8] = 0
 node[10]: - Q[10] + f[10,1] - f[16,10] - f[21,10] + D[10] = 0
 node[13]: - Q[13] + f[13,8] - f[18,13] + f[13,25] + f[13,27] + f[13,16]
   + D[13] = 0
 node[18]: - Q[18] + f[18,13] + D[18] = 0
 node[21]: - Q[21] + f[21,12] + f[21,10] + f[21,24] + D[21] = 0
 node[24]: - Q[24] + f[24,19] - f[28,24] + f[24,20] - f[21,24] + D[24] = 0
 node[2]: - Q[2] + f[2,1] - f[3,2] - f[4,2] - f[6,2] - f[7,2] - f[11,2]
   - f[16,2] + D[2] - S[2] = 0
 node[7]: - Q[7] + f[7,2] - f[23,7] + D[7] - S[7] = 0
 node[9]: - Q[9] + f[9,1] - f[12,9] + D[9] - S[9] = 0
 node[15]: - Q[15] + f[15,8] + f[15,29] - f[6,15] + f[15,28] + f[15,4]
   + D[15] - S[15] = 0
 node[17]: - Q[17] + f[17,16] - f[25,17] + D[17] - S[17] = 0
 node[29]: - Q[29] + f[29,16] - f[15,29] + D[29] - S[29] = 0
 node[30]: - Q[30] + f[30,1] + D[30] - S[30] = 0
 node[26]: f[26,1] - f[28,26] = 0
 node[11]: f[11,2] - f[20,11] - f[27,11] = 0
 node[4]: f[4,2] - f[5,4] - f[15,4] = 0
 node[12]: f[12,9] - f[14,12] - f[19,12] - f[21,12] = 0
 node[16]: f[16,10] - f[17,16] - f[29,16] + f[16,2] - f[13,16] - S[16] = 0
 node[27]: f[27,11] - f[13,27] - S[27] = 0
 node[5]: f[5,3] + f[5,4] + D[5] - S[5] = 0
 node[14]: f[14,12] + D[14] - S[14] = 0
 Cost_Flow[2,1]: - pi[1] + pi[2] + 1.464012391313122 f[2,1] - mu_f[2,1]
   = -2.877232928092327
 Cost_Flow[3,2]: - pi[2] + pi[3] + 1.228746493897993 f[3,2] - mu_f[3,2]
   = -1.108213233275043
 Cost_Flow[4,2]: - pi[2] + pi[4] + 0.0567307302270421 f[4,2] - mu_f[4,2]
   = -1.657834531563862
 Cost_Flow[5,3]: - pi[3] + pi[5] + 1.438439545653481 f[5,3] - mu_f[5,3]
   = -1.781772604839505
 Cost_Flow[6,2]: - pi[2] + pi[6] + 0.0319834590471439 f[6,2] - mu_f[6,2]
   = -2.54487362482518
 Cost_Flow[7,2]: - pi[2] + pi[7] + 1.515902004712856 f[7,2] - mu_f[7,2]
   = -0.4364206145595952
 Cost_Flow[8,1]: - pi[1] + pi[8] + 1.025517446524156 f[8,1] - mu_f[8,1]
   = -1.21953101024438
 Cost_Flow[9,1]: - pi[1] + pi[9] + 1.858208441594012 f[9,1] - mu_f[9,1]
   = -2.729876884986891
 Cost_Flow[10,1]: - pi[1] + pi[10] + 0.1321649934481495 f[10,1]
   - mu_f[10,1] = -0.1292006657046125
 Cost_Flow[11,2]: - pi[2] + pi[11] + 1.682634559224766 f[11,2] - mu_f[11,2]
   = -2.468118840544506
 Cost_Flow[12,9]: - pi[9] + pi[12] + 0.1333800175342028 f[12,9]
   - mu_f[12,9] = -1.246152112113674
 Cost_Flow[13,8]: - pi[8] + pi[13] + 0.6886199576082503 f[13,8]
   - mu_f[13,8] = -2.489411955834308
 Cost_Flow[14,12]: - pi[12] + pi[14] + 0.8605974638956666 f[14,12]
   - mu_f[14,12] = -0.0298636824218759
 Cost_Flow[15,8]: - pi[8] + pi[15] + 1.93212416156814 f[15,8] - mu_f[15,8]
   = -1.095138473274812
 Cost_Flow[16,10]: - pi[10] + pi[16] + 1.124463684456914 f[16,10]
   - mu_f[16,10] = -0.2358901114969196
 Cost_Flow[17,16]: - pi[16] + pi[17] + 0.5177291863418645 f[17,16]
   - mu_f[17,16] = -1.957843729009915
 Cost_Flow[18,13]: - pi[13] + pi[18] + 0.4833514281886899 f[18,13]
   - mu_f[18,13] = -0.8215472957986716
 Cost_Flow[19,12]: - pi[12] + pi[19] + 1.77623664131836 f[19,12]
   - mu_f[19,12] = -2.107956211979359
 Cost_Flow[20,11]: - pi[11] + pi[20] + 0.4517388568346488 f[20,11]
   - mu_f[20,11] = -2.831404280826272
 Cost_Flow[21,12]: - pi[12] + pi[21] + 0.249109411670567 f[21,12]
   - mu_f[21,12] = -0.3804513067837433
 Cost_Flow[22,20]: - pi[20] + pi[22] + 0.5766615140151552 f[22,20]
   - mu_f[22,20] = -2.594334886202322
 Cost_Flow[23,7]: - pi[7] + pi[23] + 1.172246129625466 f[23,7] - mu_f[23,7]
   = -0.1783924548010154
 Cost_Flow[24,19]: - pi[19] + pi[24] + 1.108181004346536 f[24,19]
   - mu_f[24,19] = -1.142311524932668
 Cost_Flow[25,17]: - pi[17] + pi[25] + 1.619421551825555 f[25,17]
   - mu_f[25,17] = -1.28932218353573
 Cost_Flow[26,1]: - pi[1] + pi[26] + 1.120951904012372 f[26,1] - mu_f[26,1]
   = -1.466548640500393
 Cost_Flow[27,11]: - pi[11] + pi[27] + 0.576842428862421 f[27,11]
   - mu_f[27,11] = -2.929386965808134
 Cost_Flow[28,24]: - pi[24] + pi[28] + 0.8257926853617854 f[28,24]
   - mu_f[28,24] = -2.327073564305485
 Cost_Flow[29,16]: - pi[16] + pi[29] + 1.636241941941821 f[29,16]
   - mu_f[29,16] = -0.926572088157783
 Cost_Flow[30,1]: - pi[1] + pi[30] + 1.253012924839507 f[30,1] - mu_f[30,1]
   = -0.8095103565024004
 Cost_Flow[15,29]: pi[15] - pi[29] + 1.347466875454547 f[15,29]
   - mu_f[15,29] = -0.9540521635373941
 Cost_Flow[5,4]: - pi[4] + pi[5] + 0.9207106577346496 f[5,4] - mu_f[5,4]
   = -1.522409581633581
 Cost_Flow[24,20]: - pi[20] + pi[24] + 1.157517006647005 f[24,20]
   - mu_f[24,20] = -0.5917048418876056
 Cost_Flow[3,23]: pi[3] - pi[23] + 0.9776920722585198 f[3,23] - mu_f[3,23]
   = -2.966086000103459
 Cost_Flow[6,15]: pi[6] - pi[15] + 1.601834073217218 f[6,15] - mu_f[6,15]
   = -1.443781489725806
 Cost_Flow[28,26]: - pi[26] + pi[28] + 1.205697810482233 f[28,26]
   - mu_f[28,26] = -1.965363191974141
 Cost_Flow[15,28]: pi[15] - pi[28] + 1.669976407916801 f[15,28]
   - mu_f[15,28] = -1.145444339898716
 Cost_Flow[16,2]: - pi[2] + pi[16] + 1.988053542419969 f[16,2] - mu_f[16,2]
   = -2.343571506229134
 Cost_Flow[15,4]: - pi[4] + pi[15] + 1.755057811743592 f[15,4] - mu_f[15,4]
   = -0.2604446166446824
 Cost_Flow[13,25]: pi[13] - pi[25] + 1.578309247410292 f[13,25]
   - mu_f[13,25] = -2.397589139148344
 Cost_Flow[21,10]: - pi[10] + pi[21] + 0.4506568837513303 f[21,10]
   - mu_f[21,10] = -1.086923851453707
 Cost_Flow[21,24]: pi[21] - pi[24] + 1.082819967260329 f[21,24]
   - mu_f[21,24] = -0.3378409966216716
 Cost_Flow[13,27]: pi[13] - pi[27] + 1.488761452694798 f[13,27]
   - mu_f[13,27] = -2.555627736702771
 Cost_Flow[6,1]: - pi[1] + pi[6] + 1.407571538533596 f[6,1] - mu_f[6,1]
   = -2.463309265183916
 Cost_Flow[1,25]: pi[1] - pi[25] + 1.959377417019313 f[1,25] - mu_f[1,25]
   = -2.921953214557066
 Cost_Flow[13,16]: pi[13] - pi[16] + 1.827675335346326 f[13,16]
   - mu_f[13,16] = -1.428441215906259
 Cost_Demand[2]: pi[2] + 3.577687892517859 D[2] - mu_D[2] = 1442
 Cost_Demand[5]: pi[5] + 3.602239176379626 D[5] - mu_D[5] = 1408
 Cost_Demand[7]: pi[7] + 3.962423093124381 D[7] - mu_D[7] = 1454
 Cost_Demand[8]: pi[8] + 3.072265265529877 D[8] - mu_D[8] = 1448
 Cost_Demand[9]: pi[9] + 3.499972823658618 D[9] - mu_D[9] = 1495
 Cost_Demand[10]: pi[10] + 3.744097479282648 D[10] - mu_D[10] = 1405
 Cost_Demand[13]: pi[13] + 3.177226740474659 D[13] - mu_D[13] = 1417
 Cost_Demand[14]: pi[14] + 3.388066731784519 D[14] - mu_D[14] = 1493
 Cost_Demand[15]: pi[15] + 3.062895498454971 D[15] - mu_D[15] = 1363
 Cost_Demand[17]: pi[17] + 3.725880863775777 D[17] - mu_D[17] = 1459
 Cost_Demand[18]: pi[18] + 3.087767886759487 D[18] - mu_D[18] = 1337
 Cost_Demand[21]: pi[21] + 3.395091708357968 D[21] - mu_D[21] = 1372
 Cost_Demand[24]: pi[24] + 3.873522631120732 D[24] - mu_D[24] = 1434
 Cost_Demand[29]: pi[29] + 3.472300336750012 D[29] - mu_D[29] = 1415
 Cost_Demand[30]: pi[30] + 3.912621933640886 D[30] - mu_D[30] = 1339
 Cost_Supply[2]: - pi[2] + 0.1412465569010316 S[2] - mu_S[2]
   = -1.863120204189318
 Cost_Supply[5]: - pi[5] + 0.670061849314936 S[5] - mu_S[5]
   = -1.88130717273769
 Cost_Supply[6]: - pi[6] + 0.7146185366547527 S[6] - mu_S[6]
   = -1.510706505543645
 Cost_Supply[7]: - pi[7] + 0.1670529287822722 S[7] - mu_S[7]
   = -1.344295730962325
 Cost_Supply[9]: - pi[9] + 0.395557273104876 S[9] - mu_S[9]
   = -1.994917348160918
 Cost_Supply[14]: - pi[14] + 0.9102557662160548 S[14] - mu_S[14]
   = -1.3159435453677
 Cost_Supply[15]: - pi[15] + 0.5614007675502229 S[15] - mu_S[15]
   = -1.182712378926563
 Cost_Supply[16]: - pi[16] + 0.5783359149262727 S[16] - mu_S[16]
   = -1.88009812130407
 Cost_Supply[17]: - pi[17] + 0.1941297728907936 S[17] - mu_S[17]
   = -1.812335398111254
 Cost_Supply[19]: - pi[19] + 0.5260222486178752 S[19] - mu_S[19]
   = -1.667889405571351
 Cost_Supply[23]: - pi[23] + 0.5234347273949199 S[23] - mu_S[23]
   = -1.958413631777952
 Cost_Supply[25]: - pi[25] + 0.088935640246272 S[25] - mu_S[25]
   = -1.925714577214419
 Cost_Supply[27]: - pi[27] + 0.9819426931267062 S[27] - mu_S[27]
   = -1.748248503301754
 Cost_Supply[29]: - pi[29] + 0.5713956004557744 S[29] - mu_S[29]
   = -1.860701409547678
 Cost_Supply[30]: - pi[30] + 0.00640888266431017 S[30] - mu_S[30]
   = -1.247146740322107
Bounds
Binaries
 x[1] x[2] x[3] x[6] x[7] x[8] x[9] x[10] x[13] x[15] x[17] x[18] x[19]
 x[20] x[21] x[22] x[23] x[24] x[25] x[28] x[29] x[30]
SOS
 s0:  S1 :: f[2,1]:1 mu_f[2,1]:2
 s1:  S1 :: f[3,2]:1 mu_f[3,2]:2
 s2:  S1 :: f[4,2]:1 mu_f[4,2]:2
 s3:  S1 :: f[5,3]:1 mu_f[5,3]:2
 s4:  S1 :: f[6,2]:1 mu_f[6,2]:2
 s5:  S1 :: f[7,2]:1 mu_f[7,2]:2
 s6:  S1 :: f[8,1]:1 mu_f[8,1]:2
 s7:  S1 :: f[9,1]:1 mu_f[9,1]:2
 s8:  S1 :: f[10,1]:1 mu_f[10,1]:2
 s9:  S1 :: f[11,2]:1 mu_f[11,2]:2
 s10:  S1 :: f[12,9]:1 mu_f[12,9]:2
 s11:  S1 :: f[13,8]:1 mu_f[13,8]:2
 s12:  S1 :: f[14,12]:1 mu_f[14,12]:2
 s13:  S1 :: f[15,8]:1 mu_f[15,8]:2
 s14:  S1 :: f[16,10]:1 mu_f[16,10]:2
 s15:  S1 :: f[17,16]:1 mu_f[17,16]:2
 s16:  S1 :: f[18,13]:1 mu_f[18,13]:2
 s17:  S1 :: f[19,12]:1 mu_f[19,12]:2
 s18:  S1 :: f[20,11]:1 mu_f[20,11]:2
 s19:  S1 :: f[21,12]:1 mu_f[21,12]:2
 s20:  S1 :: f[22,20]:1 mu_f[22,20]:2
 s21:  S1 :: f[23,7]:1 mu_f[23,7]:2
 s22:  S1 :: f[24,19]:1 mu_f[24,19]:2
 s23:  S1 :: f[25,17]:1 mu_f[25,17]:2
 s24:  S1 :: f[26,1]:1 mu_f[26,1]:2
 s25:  S1 :: f[27,11]:1 mu_f[27,11]:2
 s26:  S1 :: f[28,24]:1 mu_f[28,24]:2
 s27:  S1 :: f[29,16]:1 mu_f[29,16]:2
 s28:  S1 :: f[30,1]:1 mu_f[30,1]:2
 s29:  S1 :: f[15,29]:1 mu_f[15,29]:2
 s30:  S1 :: f[5,4]:1 mu_f[5,4]:2
 s31:  S1 :: f[24,20]:1 mu_f[24,20]:2
 s32:  S1 :: f[3,23]:1 mu_f[3,23]:2
 s33:  S1 :: f[6,15]:1 mu_f[6,15]:2
 s34:  S1 :: f[28,26]:1 mu_f[28,26]:2
 s35:  S1 :: f[15,28]:1 mu_f[15,28]:2
 s36:  S1 :: f[16,2]:1 mu_f[16,2]:2
 s37:  S1 :: f[15,4]:1 mu_f[15,4]:2
 s38:  S1 :: f[13,25]:1 mu_f[13,25]:2
 s39:  S1 :: f[21,10]:1 mu_f[21,10]:2
 s40:  S1 :: f[21,24]:1 mu_f[21,24]:2
 s41:  S1 :: f[13,27]:1 mu_f[13,27]:2
 s42:  S1 :: f[6,1]:1 mu_f[6,1]:2
 s43:  S1 :: f[1,25]:1 mu_f[1,25]:2
 s44:  S1 :: f[13,16]:1 mu_f[13,16]:2
 s45:  S1 :: D[2]:1 mu_D[2]:2
 s46:  S1 :: D[5]:1 mu_D[5]:2
 s47:  S1 :: D[7]:1 mu_D[7]:2
 s48:  S1 :: D[8]:1 mu_D[8]:2
 s49:  S1 :: D[9]:1 mu_D[9]:2
 s50:  S1 :: D[10]:1 mu_D[10]:2
 s51:  S1 :: D[13]:1 mu_D[13]:2
 s52:  S1 :: D[14]:1 mu_D[14]:2
 s53:  S1 :: D[15]:1 mu_D[15]:2
 s54:  S1 :: D[17]:1 mu_D[17]:2
 s55:  S1 :: D[18]:1 mu_D[18]:2
 s56:  S1 :: D[21]:1 mu_D[21]:2
 s57:  S1 :: D[24]:1 mu_D[24]:2
 s58:  S1 :: D[29]:1 mu_D[29]:2
 s59:  S1 :: D[30]:1 mu_D[30]:2
 s60:  S1 :: S[2]:1 mu_S[2]:2
 s61:  S1 :: S[5]:1 mu_S[5]:2
 s62:  S1 :: S[6]:1 mu_S[6]:2
 s63:  S1 :: S[7]:1 mu_S[7]:2
 s64:  S1 :: S[9]:1 mu_S[9]:2
 s65:  S1 :: S[14]:1 mu_S[14]:2
 s66:  S1 :: S[15]:1 mu_S[15]:2
 s67:  S1 :: S[16]:1 mu_S[16]:2
 s68:  S1 :: S[17]:1 mu_S[17]:2
 s69:  S1 :: S[19]:1 mu_S[19]:2
 s70:  S1 :: S[23]:1 mu_S[23]:2
 s71:  S1 :: S[25]:1 mu_S[25]:2
 s72:  S1 :: S[27]:1 mu_S[27]:2
 s73:  S1 :: S[29]:1 mu_S[29]:2
 s74:  S1 :: S[30]:1 mu_S[30]:2
End
