Medium-instances_NetworkFacilityLocation/2023-03-27_20hr-25min-09sec/Nodes30_Arcs45_LocNodes22/Formulation-1Instance-1.log

Gurobi 9.5.2 (win64) logging started Mon Mar 27 22:13:09 2023

Set parameter LogFile to value "2023-03-27_20hr-25min-09sec/Nodes30_Arcs45_LocNodes22/Formulation-1Instance-1.log"
Set parameter TimeLimit to value 600
Set parameter IntFeasTol to value 1e-09
Set parameter DualReductions to value 0
Set parameter NonConvex to value 2
Gurobi Optimizer version 9.5.2 build v9.5.2rc0 (win64)
Thread count: 4 physical cores, 8 logical processors, using up to 8 threads
Optimize a model with 128 rows, 224 columns and 478 nonzeros
Model fingerprint: 0x44d55270
Model has 22 quadratic objective terms
Model has 75 SOS constraints
Variable types: 202 continuous, 22 integer (22 binary)
Coefficient statistics:
  Matrix range     [6e-03, 2e+02]
  Objective range  [3e+00, 2e+02]
  QObjective range [2e+00, 2e+00]
  Bounds range     [1e+00, 1e+00]
  RHS range        [3e-02, 2e+03]
Presolve time: 0.00s
Presolved: 173 rows, 248 columns, 592 nonzeros
Presolved model has 75 SOS constraint(s)
Presolved model has 22 bilinear constraint(s)
Variable types: 226 continuous, 22 integer (22 binary)

Root relaxation: unbounded, 165 iterations, 0.00 seconds (0.00 work units)

    Nodes    |    Current Node    |     Objective Bounds      |     Work
 Expl Unexpl |  Obj  Depth IntInf | Incumbent    BestBd   Gap | It/Node Time

     0     0  postponed    0               -          -      -     -    0s
     0     0  postponed    0               -          -      -     -    0s
Exploring 100 nodes in MinRel heuristic
No solution found by MinRel heuristic
     0     2  postponed    0               -          -      -     -    0s
Exploring 10000 nodes in MinRel heuristic
H 4264   754                    -6791.752903          -      -  21.1    2s
Feasible solution found by MinRel heuristic at node 4104
 11290   829  postponed   54      -6791.7529          -      -  18.6    5s
H18567  1285                    84243.427514          -      -  15.8    7s
H19565  1328                    299035.92133          -      -  15.5    7s
H20783  1431                    299389.92133          -      -  15.3    8s
H21844  1480                    299900.92133          -      -  14.9    8s
*23407  1517              71    323607.32982          -      -  14.5    9s
*23411  1517              74    323610.58639          -      -  14.5    9s
*23414  1517              76    323610.92200          -      -  14.5    9s
*23416  1517              77    323611.15164          -      -  14.5    9s
*23418  1517              78    323611.31351          -      -  14.5    9s
*23420  1517              79    323611.43044          -      -  14.5    9s
*23423  1517              81    323611.44810          -      -  14.5    9s
*23425  1517              82    323611.46205          -      -  14.5    9s
*23427  1517              83    323611.47310          -      -  14.5    9s
*23429  1517              84    323611.48188          -      -  14.5    9s
*23431  1517              85    323611.48887          -      -  14.5    9s
*23433  1517              86    323611.49443          -      -  14.5    9s
*23435  1517              87    323611.49887          -      -  14.5    9s
*23437  1517              88    323611.50242          -      -  14.6    9s
*23439  1517              89    323611.50525          -      -  14.6    9s
*23441  1517              90    323611.50752          -      -  14.6    9s
*23443  1517              91    323611.50933          -      -  14.6    9s
*23445  1517              92    323611.51078          -      -  14.6    9s
*23447  1517              93    323611.51194          -      -  14.6    9s
*23449  1517              94    323611.51287          -      -  14.6    9s
*23451  1517              95    323611.51362          -      -  14.6    9s
*23453  1517              96    323611.51422          -      -  14.6    9s
*23455  1517              97    323611.51469          -      -  14.6    9s
*23457  1517              98    323611.51508          -      -  14.6    9s
*23459  1517              99    323611.51538          -      -  14.6    9s
*23461  1517             100    323611.51563          -      -  14.6    9s
*23463  1517             101    323611.51583          -      -  14.6    9s
*23465  1517             102    323611.51598          -      -  14.6    9s
*23467  1517             103    323611.51611          -      -  14.6    9s
*23469  1517             104    323611.51621          -      -  14.6    9s
*23471  1517             105    323611.51629          -      -  14.6    9s
*23473  1517             106    323611.51636          -      -  14.6    9s
*23475  1517             107    323611.51641          -      -  14.6    9s
*23477  1517             108    323611.51645          -      -  14.6    9s
*23479  1517             109    323611.51649          -      -  14.6    9s
*23483  1517             111    323611.51654          -      -  14.6    9s
*23489  1517             114    323611.51658          -      -  14.6    9s
*23495  1517             117    323611.51662          -      -  14.6    9s
 25724  1669  postponed   58      323611.517          -      -  14.4   10s
H28292  1725                    453825.97565          -      -  14.0   11s
*28315  1724              79    567163.87815          -      -  14.0   11s
*36819  2426             137    610367.00682          -      -  13.7   14s
*37356  2426             106    641218.04094          -      -  13.7   14s
 38586  2308  postponed   55      641218.041          -      -  13.7   15s
H40650  2301                    641379.04094          -      -  13.6   15s
H40672  2294                    644189.46181          -      -  13.6   15s
H41712  2766                    662425.56906          -      -  13.5   16s
*42140  2766             160    663289.47329          -      -  13.4   16s
H43421  2409                    663644.47329          -      -  13.4   16s
 52213  2544  postponed   48      663644.473          -      -  13.4   20s
H63640  2846                    663846.92328          -      -  13.3   24s
 64256  2786 infeasible   52      663846.923          -      -  13.3   25s
 76180  2915  postponed   49      663846.923          -      -  13.3   30s
 90937  2855 infeasible   55      663846.923          -      -  13.5   35s
 104386  2929  postponed   56      663846.923          -      -  13.5   40s
 117382  2884 infeasible   52      663846.923          -      -  13.5   45s
 130414  2824  postponed   56      663846.923          -      -  13.6   50s
 144365  3059 infeasible   52      663846.923          -      -  13.6   55s
 157981  3255 infeasible   54      663846.923          -      -  13.5   60s
 171985  3331  postponed   57      663846.923          -      -  13.7   65s
 188977  3493  postponed   51      663846.923          -      -  13.2   70s
 205663  3450  postponed   51      663846.923          -      -  12.6   75s
 223447  3487 infeasible   55      663846.923          -      -  12.0   80s
 240717  3389 infeasible   53      663846.923          -      -  11.5   85s
 256318  3196  postponed   47      663846.923          -      -  11.3   90s
 270492  3268 infeasible   50      663846.923          -      -  11.2   95s
 284750  3316  postponed   43      663846.923          -      -  11.3  100s
 300083  3327  postponed   50      663846.923          -      -  11.2  105s
 317080  3462  postponed   51      663846.923          -      -  11.0  110s
 333239  3476  postponed   51      663846.923          -      -  10.8  115s
 348463  3577  postponed   50      663846.923          -      -  10.7  120s
H354531  3522                    664031.54071          -      -  10.7  122s
 361763  3610  postponed   53      664031.541          -      -  10.7  125s
 374177  3747 706821.804   56   18 664031.541          -      -  10.8  130s
 390769  3838 infeasible   54      664031.541          -      -  10.9  135s
 403764  3938  postponed   51      664031.541          -      -  11.0  140s
 415107  3961  postponed   51      664031.541          -      -  11.2  145s
 427237  3947  postponed   52      664031.541          -      -  11.3  150s
 441418  3861  postponed   50      664031.541          -      -  11.3  155s
 457351  4192 infeasible   52      664031.541          -      -  11.4  160s
 471634  4398 infeasible   45      664031.541          -      -  11.5  165s
 486048  4442  postponed   46      664031.541          -      -  11.6  170s
 500805  4436  postponed   56      664031.541          -      -  11.7  175s
 515627  4395  postponed   53      664031.541          -      -  11.7  180s
 529648  4303  postponed   47      664031.541          -      -  11.8  185s
 544101  4243 infeasible   49      664031.541          -      -  11.9  190s
 561225  4280  postponed   45      664031.541          -      -  12.0  195s
*568912  4484              88    664054.92807          -      -  12.1  198s
*568913  4484              88    664059.45207          -      -  12.1  198s
*568917  4484              90    664062.04536          -      -  12.1  198s
*568920  4484              92    664062.10474          -      -  12.1  198s
*568921  4484              92    664062.10484          -      -  12.1  198s
*568923  4484              89    664063.24614          -      -  12.1  198s
 574173  4606  postponed   46      664063.246          -      -  12.1  200s
 587383  4700  postponed   55      664063.246          -      -  12.1  205s
 599533  4770 infeasible   57      664063.246          -      -  12.1  210s
 613598  4714 infeasible   54      664063.246          -      -  12.2  215s
 625633  5022  postponed   46      664063.246          -      -  12.3  220s
 638954  5435  postponed   48      664063.246          -      -  12.4  225s
 651078  5624 infeasible   50      664063.246          -      -  12.5  230s
 664477  5775 infeasible   52      664063.246          -      -  12.6  235s
 676616  5839 infeasible   49      664063.246          -      -  12.7  240s
 689869  5887  postponed   44      664063.246          -      -  12.7  245s
 701775  5881 infeasible   55      664063.246          -      -  12.8  250s
 714589  5884  postponed   53      664063.246          -      -  12.9  255s
 726522  5822  postponed   50      664063.246          -      -  13.0  260s
 739964  5741  postponed   47      664063.246          -      -  13.0  265s
 751376  5709  postponed   51      664063.246          -      -  13.1  270s
 764150  5671  postponed   52      664063.246          -      -  13.2  275s
 775932  5631 infeasible   55      664063.246          -      -  13.2  280s
 788969  5649 infeasible   52      664063.246          -      -  13.3  285s
 800897  5628  postponed   57      664063.246          -      -  13.4  290s
 813678  5624 infeasible   49      664063.246          -      -  13.5  295s
 826911  5587  postponed   53      664063.246          -      -  13.5  300s
 840483  5427  postponed   42      664063.246          -      -  13.6  305s
 850672  5485  postponed   54      664063.246          -      -  13.6  310s
 863107  5613 infeasible   47      664063.246          -      -  13.7  315s
 876571  5607  postponed   37      664063.246          -      -  13.7  320s
 889578  5665 infeasible   53      664063.246          -      -  13.7  325s
 902073  5841  postponed   53      664063.246          -      -  13.7  330s
 914686  6019  postponed   50      664063.246          -      -  13.7  335s
 927893  6256  postponed   47      664063.246          -      -  13.7  340s
 941417  6266  postponed   47      664063.246          -      -  13.7  345s
 955991  6369  postponed   55      664063.246          -      -  13.7  350s
 968983  6687 infeasible   34      664063.246          -      -  13.8  355s
 982343  6862 infeasible   51      664063.246          -      -  13.9  360s
 995621  6921  postponed   46      664063.246          -      -  13.9  365s
 1008575  6946  postponed   51      664063.246          -      -  14.0  370s
 1020711  7054  postponed   54      664063.246          -      -  14.0  375s
 1033141  7189  postponed   36      664063.246          -      -  14.1  380s
 1046859  7209  postponed   47      664063.246          -      -  14.0  385s
 1059111  7291 infeasible   50      664063.246          -      -  14.0  390s
 1072488  7273 infeasible   53      664063.246          -      -  14.0  395s
 1086598  7494  postponed   57      664063.246          -      -  14.0  400s
 1099906  7597  postponed   54      664063.246          -      -  14.0  405s
 1112911  7591 infeasible   51      664063.246          -      -  14.0  410s
 1126071  7656  postponed   52      664063.246          -      -  14.0  415s
 1141100  7946 infeasible   44      664063.246          -      -  14.0  420s
 1154639  8102  postponed   52      664063.246          -      -  14.0  425s
 1169300  8034 infeasible   55      664063.246          -      -  13.9  430s
 1182930  8033  postponed   55      664063.246          -      -  13.9  435s
 1196805  8031 infeasible   55      664063.246          -      -  13.9  440s
 1210218  8005  postponed   55      664063.246          -      -  13.9  445s
 1224513  7905  postponed   53      664063.246          -      -  13.9  450s
 1237344  7928  postponed   43      664063.246          -      -  13.9  455s
 1251734  7772 infeasible   46      664063.246          -      -  13.9  460s
 1264615  7772  postponed   49      664063.246          -      -  13.9  465s
 1277471  7593 infeasible   58      664063.246          -      -  13.9  470s
 1291909  7461 infeasible   55      664063.246          -      -  14.0  475s
 1305007  7400  postponed   58      664063.246          -      -  14.0  480s
 1317802  7369  postponed   54      664063.246          -      -  14.0  485s
 1330586  7445  postponed   55      664063.246          -      -  14.0  490s
 1342289  7519 infeasible   46      664063.246          -      -  14.0  495s
 1355351  7594 infeasible   48      664063.246          -      -  14.0  500s
 1367333  7485 infeasible   57      664063.246          -      -  14.1  505s
 1378080  7383 infeasible   59      664063.246          -      -  14.1  510s
 1390694  7184 infeasible   57      664063.246          -      -  14.1  515s
 1403094  7135  postponed   52      664063.246          -      -  14.1  520s
 1416994  7157  postponed   49      664063.246          -      -  14.1  525s
 1430422  7060  postponed   52      664063.246          -      -  14.1  530s
 1444538  7058 infeasible   56      664063.246          -      -  14.1  535s
 1458549  7176 infeasible   53      664063.246          -      -  14.1  540s
 1471385  7428  postponed   46      664063.246          -      -  14.1  545s
 1484653  7459  postponed   44      664063.246          -      -  14.1  550s
 1496896  7588  postponed   49      664063.246          -      -  14.1  555s
 1508893  7500 infeasible   47      664063.246          -      -  14.1  560s
 1521822  7364 infeasible   52      664063.246          -      -  14.1  565s
 1534040  7567 infeasible   57      664063.246          -      -  14.2  570s
 1545235  7739 infeasible   56      664063.246          -      -  14.2  575s
 1556982  7653 infeasible   46      664063.246          -      -  14.2  580s
 1569741  7724  postponed   54      664063.246          -      -  14.3  585s
 1581293  7579  postponed   54      664063.246          -      -  14.3  590s
 1593873  7404  postponed   58      664063.246          -      -  14.4  595s
 1605267  7334  postponed   45      664063.246          -      -  14.4  600s

Explored 1606053 nodes (23100523 simplex iterations) in 600.03 seconds (116.56 work units)
Thread count was 8 (of 8 available processors)

Solution count 10: 664063 664062 664062 ... 663289

Time limit reached
Best objective 6.640632461367e+05, best bound -, gap -

User-callback calls 3216047, time in user-callback 33.84 sec
